<number of tasks>
50

<cycle time>
1000

<order strength>
0.202


<task times>
1 160
2 139
3 225
4 290
5 52
6 242
7 129
8 131
9 268
10 21
11 48
12 104
13 234
14 614
15 153
16 252
17 265
18 54
19 443
20 32
21 87
22 57
23 136
24 164
25 401
26 116
27 110
28 25
29 444
30 63
31 93
32 474
33 243
34 25
35 24
36 578
37 67
38 237
39 146
40 51
41 145
42 572
43 141
44 234
45 26
46 169
47 305
48 501
49 98
50 156

<precedence relations>
1,34
2,9
3,10
3,13
4,38
5,8
5,11
6,12
7,14
8,34
9,18
10,17
11,15
11,19
11,20
11,21
12,16
12,27
14,19
15,24
16,25
17,22
18,26
19,36
20,23
20,28
21,27
22,34
23,34
24,29
25,30
26,32
26,48
27,31
27,33
29,34
30,35
30,37
30,38
31,39
33,36
34,40
34,41
34,42
34,43
34,44
35,45
38,46
39,50
44,50
45,47
46,48
46,49

<end>
